QPLIB_3748
LGQ
minimize
95 # number of variables
52 # number of constraints
0.0 # default value for linear coefficients in objective
80 # number of non-default linear coefficients in objective
1 301.8999281
2 282.0514736
3 151.594045
4 114.7841859
5 213.3645307
6 772.6531483
7 697.6762118
8 146.3063717
9 390.5833939
10 208.1475274
11 662.8929022
12 577.4613376
13 221.1004735
14 425.9198267
15 123.0747708
16 333.2812967
17 248.3807467
18 249.1629421
19 164.5987992
20 280.9571711
21 308.552481
22 270.0596053
23 104.6334836
24 79.66318986
25 170.6962378
26 237.7540763
27 189.8629117
28 107.2175314
29 131.3587153
30 103.4067771
31 626.4177638
32 487.1847308
33 502.3005806
34 506.4263525
35 463.1857483
36 358.1782216
37 281.6292472
38 230.4203839
39 251.9154331
40 209.2610889
41 303.899003
42 243.1974895
43 237.3909659
44 57.1385835
45 301.733744
46 30.61237685
47 21.33969484
48 278.520865
49 162.1221457
50 304.5088032
51 252.5162062
52 178.7960296
53 319.1456349
54 257.7551033
55 317.9968645
56 936.1711508
57 887.6119637
58 419.7607228
59 519.9814012
60 524.6219579
61 326.3704467
62 119.6109274
63 76.80085942
64 338.1531137
65 113.1015469
66 69.37623586
67 313.6973235
68 116.2665854
69 75.07446576
70 401.4402965
71 138.5995873
72 86.37682594
73 456.7067237
74 150.5541613
75 91.68218598
76 93617.11508
77 93617.11508
78 93617.11508
79 93617.11508
80 93617.11508
0.0 # objective constant
45 # number of quadratic terms in all constraints
38 1 1 -2.0
38 1 1 2.0
38 1 1 2.0
39 1 1 -2.0
39 1 1 2.0
39 1 1 2.0
40 1 1 -2.0
40 1 1 2.0
40 1 1 2.0
41 1 1 -2.0
41 1 1 2.0
41 1 1 2.0
42 1 1 -2.0
42 1 1 2.0
42 1 1 2.0
43 1 1 -2.0
43 1 1 2.0
43 1 1 2.0
44 1 1 -2.0
44 1 1 2.0
44 1 1 2.0
45 1 1 -2.0
45 1 1 2.0
45 1 1 2.0
46 1 1 -2.0
46 1 1 2.0
46 1 1 2.0
47 1 1 -2.0
47 1 1 2.0
47 1 1 2.0
48 1 1 -2.0
48 1 1 2.0
48 1 1 2.0
49 1 1 -2.0
49 1 1 2.0
49 1 1 2.0
50 1 1 -2.0
50 1 1 2.0
50 1 1 2.0
51 1 1 -2.0
51 1 1 2.0
51 1 1 2.0
52 1 1 -2.0
52 1 1 2.0
52 1 1 2.0
180 # number of linear terms in all constraints
1 1 0.609376132
1 6 1.180016336
1 11 0.967493052
1 16 1.004918785
1 21 0.698898063
1 26 0.540292599
1 31 1.460452986
1 36 0.811980791
1 41 0.973180988
1 46 0.544914116
1 51 0.78515855
1 56 1.312281472
1 81 -2.008069891
1 82 -4.016139782
1 83 -6.024209674
2 2 0.609376132
2 7 1.180016336
2 12 0.967493052
2 17 1.004918785
2 22 0.698898063
2 27 0.540292599
2 32 1.460452986
2 37 0.811980791
2 42 0.973180988
2 47 0.544914116
2 52 0.78515855
2 57 1.312281472
2 84 -1.581486777
2 85 -3.162973554
2 86 -4.744460331
3 3 0.609376132
3 8 1.180016336
3 13 0.967493052
3 18 1.004918785
3 23 0.698898063
3 28 0.540292599
3 33 1.460452986
3 38 0.811980791
3 43 0.973180988
3 48 0.544914116
3 53 0.78515855
3 58 1.312281472
3 87 -1.99632469
3 88 -3.99264938
3 89 -5.988974071
4 4 0.609376132
4 9 1.180016336
4 14 0.967493052
4 19 1.004918785
4 24 0.698898063
4 29 0.540292599
4 34 1.460452986
4 39 0.811980791
4 44 0.973180988
4 49 0.544914116
4 54 0.78515855
4 59 1.312281472
4 90 -2.065052076
4 91 -4.130104152
4 92 -6.195156228
5 5 0.609376132
5 10 1.180016336
5 15 0.967493052
5 20 1.004918785
5 25 0.698898063
5 30 0.540292599
5 35 1.460452986
5 40 0.811980791
5 45 0.973180988
5 50 0.544914116
5 55 0.78515855
5 60 1.312281472
5 93 -2.044984424
5 94 -4.089968848
5 95 -6.134953271
6 1 1.0
6 2 1.0
6 3 1.0
6 4 1.0
6 5 1.0
7 6 1.0
7 7 1.0
7 8 1.0
7 9 1.0
7 10 1.0
8 11 1.0
8 12 1.0
8 13 1.0
8 14 1.0
8 15 1.0
9 16 1.0
9 17 1.0
9 18 1.0
9 19 1.0
9 20 1.0
10 21 1.0
10 22 1.0
10 23 1.0
10 24 1.0
10 25 1.0
11 26 1.0
11 27 1.0
11 28 1.0
11 29 1.0
11 30 1.0
12 31 1.0
12 32 1.0
12 33 1.0
12 34 1.0
12 35 1.0
13 36 1.0
13 37 1.0
13 38 1.0
13 39 1.0
13 40 1.0
14 41 1.0
14 42 1.0
14 43 1.0
14 44 1.0
14 45 1.0
15 46 1.0
15 47 1.0
15 48 1.0
15 49 1.0
15 50 1.0
16 51 1.0
16 52 1.0
16 53 1.0
16 54 1.0
16 55 1.0
17 56 1.0
17 57 1.0
17 58 1.0
17 59 1.0
17 60 1.0
18 61 1.0
18 62 1.0
18 63 1.0
19 64 1.0
19 65 1.0
19 66 1.0
20 67 1.0
20 68 1.0
20 69 1.0
21 70 1.0
21 71 1.0
21 72 1.0
22 73 1.0
22 74 1.0
22 75 1.0
23 61 -1.0
23 81 1.0
24 62 -1.0
24 82 1.0
25 63 -1.0
25 83 1.0
26 64 -1.0
26 84 1.0
27 65 -1.0
27 85 1.0
28 66 -1.0
28 86 1.0
29 67 -1.0
29 87 1.0
30 68 -1.0
30 88 1.0
31 69 -1.0
31 89 1.0
32 70 -1.0
32 90 1.0
33 71 -1.0
33 91 1.0
34 72 -1.0
34 92 1.0
35 73 -1.0
35 93 1.0
36 74 -1.0
36 94 1.0
37 75 -1.0
37 95 1.0
1.79769313486232E+308 # value for infinity
-1.79769313486232E+308 # default left-hand-side value
17 # number of non-default left-hand-sides
1 0.0
2 0.0
3 0.0
4 0.0
5 0.0
6 1.0
7 1.0
8 1.0
9 1.0
10 1.0
11 1.0
12 1.0
13 1.0
14 1.0
15 1.0
16 1.0
17 1.0
0.0 # default right-hand-side value
17 # number of non-default right-hand-sides
6 1.0
7 1.0
8 1.0
9 1.0
10 1.0
11 1.0
12 1.0
13 1.0
14 1.0
15 1.0
16 1.0
17 1.0
18 1.0
19 1.0
20 1.0
21 1.0
22 1.0
0.0 # default variable lower bound value
0 # number of non-default variable lower bounds
1.0 # default variable upper bound value
20 # number of non-default variable upper bounds
76 1.79769313486232E+308
77 1.79769313486232E+308
78 1.79769313486232E+308
79 1.79769313486232E+308
80 1.79769313486232E+308
81 1.79769313486232E+308
82 1.79769313486232E+308
83 1.79769313486232E+308
84 1.79769313486232E+308
85 1.79769313486232E+308
86 1.79769313486232E+308
87 1.79769313486232E+308
88 1.79769313486232E+308
89 1.79769313486232E+308
90 1.79769313486232E+308
91 1.79769313486232E+308
92 1.79769313486232E+308
93 1.79769313486232E+308
94 1.79769313486232E+308
95 1.79769313486232E+308
1 # default variable type
20 # number of non-default variable types
76 1
77 1
78 1
79 1
80 1
81 1
82 1
83 1
84 1
85 1
86 1
87 1
88 1
89 1
90 1
91 1
92 1
93 1
94 1
95 1
0.0 # default variable primal value in starting point
0 # number of non-default variable primal values in starting point
0.0 # default constraint dual value in starting point
0 # number of non-default constraint dual values in starting point
0.0 # default variable bound dual value in starting point
0 # number of non-default variable bound dual values in starting point
0 # number of non-default variable names
0 # number of non-default constraint names
